;; produced by aern2.drv ;;
(set-info :smt-lib-version 2.6)
(set-logic AUFBVFPDTNIRA)
;;; generated by SMT-LIB2 driver
;;; SMT-LIB2 driver: bit-vectors, common part
;;; SMT-LIB2: integer arithmetic
;;; SMT-LIB2: real arithmetic
(define-fun fp.isFinite32 ((x Float32)) Bool (not (or (fp.isInfinite x) (fp.isNaN x))))
(define-fun fp.isIntegral32 ((x Float32)) Bool (or (fp.isZero x) (and (fp.isNormal x) (= x (fp.roundToIntegral RNE x)))))
(declare-sort string 0)

(declare-datatypes ((tuple0 0))
  (((Tuple0))))

(declare-sort us_private 0)

;; private__bool_eq
(declare-fun private__bool_eq (us_private
  us_private) Bool)

(declare-const us_null_ext__ us_private)

(declare-sort us_type_of_heap 0)

(declare-datatypes ((us_type_of_heap__ref 0))
  (((us_type_of_heap__refqtmk (us_type_of_heap__content us_type_of_heap)))))

(declare-sort us_image 0)

(declare-datatypes ((int__ref 0))
  (((int__refqtmk (int__content Int)))))

(declare-datatypes ((bool__ref 0))
  (((bool__refqtmk (bool__content Bool)))))

(declare-datatypes ((us_fixed__ref 0))
  (((us_fixed__refqtmk (us_fixed__content Int)))))

(declare-datatypes ((real__ref 0))
  (((real__refqtmk (real__content Real)))))

(declare-datatypes ((us_private__ref 0))
  (((us_private__refqtmk (us_private__content us_private)))))

;; int__ref___projection
(define-fun int__ref___projection ((a int__ref)) Int
  (int__content a))

;; __fixed__ref___projection
(define-fun us_fixed__ref___projection ((a us_fixed__ref)) Int
  (us_fixed__content a))

;; bool__ref___projection
(define-fun bool__ref___projection ((a bool__ref)) Bool
  (bool__content a))

;; real__ref___projection
(define-fun real__ref___projection ((a real__ref)) Real
  (real__content a))

;; __private__ref___projection
(define-fun us_private__ref___projection ((a us_private__ref)) us_private
  (us_private__content a))

;; power
(declare-fun power (Int
  Int) Int)

;; Power_0
(assert (forall ((x Int)) (= (power x 0) 1)))

;; Power_s
(assert
  (forall ((x Int) (n Int))
    (=> (or (< 0 n) (= 0 n)) (= (power x (+ n 1)) (* x (power x n))))))

;; Power_s_alt
(assert
  (forall ((x Int) (n Int))
    (=> (< 0 n) (= (power x n) (* x (power x (+ n (- 1))))))))

;; Power_1
(assert (forall ((x Int)) (= (power x 1) x)))

;; Power_sum
(assert
  (forall ((x Int) (n Int) (m Int))
    (=>
      (or (< 0 n) (= 0 n))
      (=>
        (or (< 0 m) (= 0 m))
        (= (power x (+ n m)) (* (power x n) (power x m)))))))

;; Power_mult
(assert
  (forall ((x Int) (n Int) (m Int))
    (=>
      (or (< 0 n) (= 0 n))
      (=> (or (< 0 m) (= 0 m)) (= (power x (* n m)) (power (power x n) m))))))

;; Power_comm1
(assert
  (forall ((x Int) (y Int))
    (=>
      (= (* x y) (* y x))
      (forall ((n Int))
        (=> (or (< 0 n) (= 0 n)) (= (* (power x n) y) (* y (power x n))))))))

;; Power_comm2
(assert
  (forall ((x Int) (y Int))
    (=>
      (= (* x y) (* y x))
      (forall ((n Int))
        (=>
          (or (< 0 n) (= 0 n))
          (= (power (* x y) n) (* (power x n) (power y n))))))))

;; Power_non_neg
(assert
  (forall ((x Int) (y Int))
    (=>
      (and (or (< 0 x) (= 0 x)) (or (< 0 y) (= 0 y)))
      (or (< 0 (power x y)) (= 0 (power x y))))))

;; Power_pos
(assert
  (forall ((x Int) (y Int))
    (=> (and (< 0 x) (or (< 0 y) (= 0 y))) (< 0 (power x y)))))

;; Power_monotonic
(assert
  (forall ((x Int) (n Int) (m Int))
    (=>
      (and (< 0 x) (and (or (< 0 n) (= 0 n)) (or (< n m) (= n m))))
      (or (< (power x n) (power x m)) (= (power x n) (power x m))))))

;; pow2
(declare-fun pow2 (Int) Int)

;; of_int
(declare-fun of_int (RoundingMode
  Int) Float32)

;; to_int
(declare-fun to_int1 (RoundingMode
  Float32) Int)

(declare-const max_int Int)

;; sqrt
(declare-fun sqrt1 (Real) Real)

;; Sqrt_positive
(assert
  (forall ((x Real))
    (=> (or (< 0.0 x) (= 0.0 x)) (or (< 0.0 (sqrt1 x)) (= 0.0 (sqrt1 x))))))

;; Sqrt_square
(assert
  (forall ((x Real))
    (=> (or (< 0.0 x) (= 0.0 x)) (= (* (sqrt1 x) (sqrt1 x)) x))))

;; Square_sqrt
(assert
  (forall ((x Real)) (=> (or (< 0.0 x) (= 0.0 x)) (= (sqrt1 (* x x)) x))))

;; Sqrt_mul
(assert
  (forall ((x Real) (y Real))
    (=>
      (and (or (< 0.0 x) (= 0.0 x)) (or (< 0.0 y) (= 0.0 y)))
      (= (sqrt1 (* x y)) (* (sqrt1 x) (sqrt1 y))))))

;; Sqrt_le
(assert
  (forall ((x Real) (y Real))
    (=>
      (and (or (< 0.0 x) (= 0.0 x)) (or (< x y) (= x y)))
      (or (< (sqrt1 x) (sqrt1 y)) (= (sqrt1 x) (sqrt1 y))))))

;; rem
(declare-fun rem1 (Float32
  Float32) Float32)

;; one_is_int
(assert (fp.isIntegral32 (fp #b0 #b01111111 #b00000000000000000000000)))

;; one_of_int
(assert (= (fp #b0 #b01111111 #b00000000000000000000000) (of_int RNA 1)))

(declare-datatypes ((t__ref 0))
  (((t__refqtmk (t__content Float32)))))

;; attr__ATTRIBUTE_IMAGE
(declare-fun attr__ATTRIBUTE_IMAGE (Bool) us_image)

;; attr__ATTRIBUTE_VALUE__pre_check
(declare-fun attr__ATTRIBUTE_VALUE__pre_check (us_image) Bool)

;; attr__ATTRIBUTE_VALUE
(declare-fun attr__ATTRIBUTE_VALUE (us_image) Bool)

;; bool_eq
(declare-fun bool_eq (Real
  Real) Bool)

;; bool_ne
(declare-fun bool_ne (Real
  Real) Bool)

;; bool_lt
(declare-fun bool_lt (Real
  Real) Bool)

;; bool_le
(declare-fun bool_le (Real
  Real) Bool)

;; bool_gt
(declare-fun bool_gt (Real
  Real) Bool)

;; bool_ge
(declare-fun bool_ge (Real
  Real) Bool)

;; bool_eq_axiom
(assert
  (forall ((x Real)) (forall ((y Real)) (= (= (bool_eq x y) true) (= x y)))))

;; bool_ne_axiom
(assert
  (forall ((x Real))
    (forall ((y Real)) (= (= (bool_ne x y) true) (not (= x y))))))

;; bool_lt_axiom
(assert
  (forall ((x Real)) (forall ((y Real)) (= (= (bool_lt x y) true) (< x y)))))

;; bool_int__le_axiom
(assert
  (forall ((x Real))
    (forall ((y Real)) (= (= (bool_le x y) true) (or (< x y) (= x y))))))

;; bool_gt_axiom
(assert
  (forall ((x Real)) (forall ((y Real)) (= (= (bool_gt x y) true) (< y x)))))

;; bool_ge_axiom
(assert
  (forall ((x Real))
    (forall ((y Real)) (= (= (bool_ge x y) true) (or (< y x) (= y x))))))

(declare-sort integer 0)

;; integer'int
(declare-fun integerqtint (integer) Int)

;; attr__ATTRIBUTE_IMAGE
(declare-fun attr__ATTRIBUTE_IMAGE1 (Int) us_image)

;; attr__ATTRIBUTE_VALUE__pre_check
(declare-fun attr__ATTRIBUTE_VALUE__pre_check1 (us_image) Bool)

;; attr__ATTRIBUTE_VALUE
(declare-fun attr__ATTRIBUTE_VALUE1 (us_image) Int)

;; user_eq
(declare-fun user_eq (integer
  integer) Bool)

(declare-const dummy integer)

(declare-datatypes ((integer__ref 0))
  (((integer__refqtmk (integer__content integer)))))

;; integer__ref_integer__content__projection
(define-fun integer__ref_integer__content__projection ((a integer__ref)) integer
  (integer__content a))

(declare-sort natural 0)

;; natural'int
(declare-fun naturalqtint (natural) Int)

;; attr__ATTRIBUTE_IMAGE
(declare-fun attr__ATTRIBUTE_IMAGE2 (Int) us_image)

;; attr__ATTRIBUTE_VALUE__pre_check
(declare-fun attr__ATTRIBUTE_VALUE__pre_check2 (us_image) Bool)

;; attr__ATTRIBUTE_VALUE
(declare-fun attr__ATTRIBUTE_VALUE2 (us_image) Int)

;; user_eq
(declare-fun user_eq1 (natural
  natural) Bool)

(declare-const dummy1 natural)

(declare-datatypes ((natural__ref 0))
  (((natural__refqtmk (natural__content natural)))))

;; natural__ref_natural__content__projection
(define-fun natural__ref_natural__content__projection ((a natural__ref)) natural
  (natural__content a))

(declare-sort float__ 0)

;; user_eq
(declare-fun user_eq2 (float__
  float__) Bool)

;; attr__ATTRIBUTE_IMAGE
(declare-fun attr__ATTRIBUTE_IMAGE3 (Float32) us_image)

;; attr__ATTRIBUTE_VALUE__pre_check
(declare-fun attr__ATTRIBUTE_VALUE__pre_check3 (us_image) Bool)

;; attr__ATTRIBUTE_VALUE
(declare-fun attr__ATTRIBUTE_VALUE3 (us_image) Float32)

(declare-const dummy2 float__)

(declare-datatypes ((float____ref 0))
  (((float____refqtmk (float____content float__)))))

;; float____ref_float____content__projection
(define-fun float____ref_float____content__projection ((a float____ref)) float__
  (float____content a))

(declare-const x Float32)

(declare-const n Int)

;; bool_eq
(declare-fun bool_eq1 (Real
  Real) Bool)

(declare-const value__size Int)

(declare-const object__size Int)

(declare-const alignment Int)

;; value__size_axiom
(assert (or (< 0 value__size) (= 0 value__size)))

;; object__size_axiom
(assert (or (< 0 object__size) (= 0 object__size)))

;; alignment_axiom
(assert (or (< 0 alignment) (= 0 alignment)))

;; user_eq
(declare-fun user_eq3 (Real
  Real) Bool)

(declare-const dummy3 Real)

(declare-datatypes ((big_real__ref 0))
  (((big_real__refqtmk (big_real__content Real)))))

;; big_real__ref_big_real__content__projection
(define-fun big_real__ref_big_real__content__projection ((a big_real__ref)) Real
  (big_real__content a))

(declare-datatypes ((valid_big_real__ref 0))
  (((valid_big_real__refqtmk (valid_big_real__content Real)))))

;; valid_big_real__ref_valid_big_real__content__projection
(define-fun valid_big_real__ref_valid_big_real__content__projection ((a valid_big_real__ref)) Real
  (valid_big_real__content a))

;; to_real
(declare-fun to_real1 (Int) Real)

;; to_real__function_guard
(declare-fun to_real__function_guard (Real
  Int) Bool)

;; bool_eq
(declare-fun bool_eq2 (Int
  Int) Bool)

(declare-const value__size1 Int)

(declare-const object__size1 Int)

(declare-const alignment1 Int)

;; value__size_axiom
(assert (or (< 0 value__size1) (= 0 value__size1)))

;; object__size_axiom
(assert (or (< 0 object__size1) (= 0 object__size1)))

;; alignment_axiom
(assert (or (< 0 alignment1) (= 0 alignment1)))

;; user_eq
(declare-fun user_eq4 (Int
  Int) Bool)

(declare-const dummy4 Int)

(declare-datatypes ((big_integer__ref 0))
  (((big_integer__refqtmk (big_integer__content Int)))))

;; big_integer__ref_big_integer__content__projection
(define-fun big_integer__ref_big_integer__content__projection ((a big_integer__ref)) Int
  (big_integer__content a))

(declare-datatypes ((valid_big_integer__ref 0))
  (((valid_big_integer__refqtmk (valid_big_integer__content Int)))))

;; valid_big_integer__ref_valid_big_integer__content__projection
(define-fun valid_big_integer__ref_valid_big_integer__content__projection 
  ((a valid_big_integer__ref)) Int
  (valid_big_integer__content a))

;; to_real__post_axiom
(assert true)

;; to_real__def_axiom
(assert
  (forall ((arg Int))
    (! (=>
         (and
           (or (< (- 2147483648) arg) (= (- 2147483648) arg))
           (or (< arg 2147483647) (= arg 2147483647)))
         (= (to_real1 arg) (* (to_real arg) (/ 1.0 (to_real 1))))) :pattern (
    (to_real1
      arg)) )))

;; real_square_root
(declare-fun real_square_root (Real) Real)

;; real_square_root__function_guard
(declare-fun real_square_root__function_guard (Real
  Real) Bool)

;; real_square_root__post_axiom
(assert
  (forall ((a Real))
    (! (=>
         (= (bool_ge a (to_real1 0)) true)
         (=>
           (real_square_root__function_guard (real_square_root a) a)
           (and
             (= (bool_ge (real_square_root a) (to_real1 0)) true)
             (= (bool_eq (* (real_square_root a) (real_square_root a)) a) true)))) :pattern (
    (real_square_root
      a)) )))

;; to_rep
(define-fun to_rep ((x1 integer)) Int
  (integerqtint x1))

;; of_rep
(declare-fun of_rep (Int) integer)

;; inversion_axiom
(assert
  (forall ((x1 integer))
    (! (= (of_rep (to_rep x1)) x1) :pattern ((to_rep x1)) )))

;; range_axiom
(assert
  (forall ((x1 integer))
    (! (and
         (or (< (- 2147483648) (to_rep x1)) (= (- 2147483648) (to_rep x1)))
         (or (< (to_rep x1) 2147483647) (= (to_rep x1) 2147483647))) :pattern (
    (to_rep
      x1)) )))

;; coerce_axiom
(assert
  (forall ((x1 Int))
    (! (=>
         (and
           (or (< (- 2147483648) x1) (= (- 2147483648) x1))
           (or (< x1 2147483647) (= x1 2147483647)))
         (= (to_rep (of_rep x1)) x1)) :pattern ((to_rep (of_rep x1))) )))

;; attr__ATTRIBUTE_IMAGE
(declare-fun attr__ATTRIBUTE_IMAGE4 (Int) us_image)

;; attr__ATTRIBUTE_VALUE__pre_check
(declare-fun attr__ATTRIBUTE_VALUE__pre_check4 (us_image) Bool)

;; attr__ATTRIBUTE_VALUE
(declare-fun attr__ATTRIBUTE_VALUE4 (us_image) Int)

;; user_eq
(declare-fun user_eq5 (integer
  integer) Bool)

(declare-const dummy5 integer)

(declare-datatypes ((t1b__ref 0))
  (((t1b__refqtmk (t1b__content integer)))))

;; t1b__ref_t1b__content__projection
(define-fun t1b__ref_t1b__content__projection ((a t1b__ref)) integer
  (t1b__content a))

;; Assume
(assert (fp.isFinite32 x))

;; Assume
(assert
  (and
    (or (< (- 2147483648) n) (= (- 2147483648) n))
    (or (< n 2147483647) (= n 2147483647))))

;; Assume
(assert
  (and
    (and
      (and
        (fp.leq (fp #b0 #b01111110 #b00000000000000000000000) x)
        (fp.leq x (fp #b0 #b10000000 #b00000000000000000000000)))
      (or (< 1 n) (= 1 n)))
    (or (< n 5) (= n 5))))

;; Assume
(assert (fp.isFinite32 (fp #b0 #b01111111 #b00000000000000000000000)))

;; H
(assert
  (= (ite (= (ite true true false) true) (ite (or (< 1 n) (= 1 n))
                                           true
                                           false) false) true))

;; Ensures
(assert
  (fp.isFinite32 (fp.div RNE x (fp #b0 #b01111111 #b00000000000000000000000))))

;; Ensures
(assert
  (fp.isFinite32 (fp.add RNE (fp #b0 #b01111111 #b00000000000000000000000) (fp.div RNE 
  x (fp #b0 #b01111111 #b00000000000000000000000)))))

;; LoopInvariant
(assert
  (fp.leq (fp #b0 #b01111110 #b01100110011001100110011) (fp.div RNE (fp.add RNE (fp #b0 #b01111111 #b00000000000000000000000) (fp.div RNE 
  x (fp #b0 #b01111111 #b00000000000000000000000))) (fp #b0 #b10000000 #b00000000000000000000000))))

;; LoopInvariant
(assert
  (fp.leq (fp.div RNE (fp.add RNE (fp #b0 #b01111111 #b00000000000000000000000) (fp.div RNE 
  x (fp #b0 #b01111111 #b00000000000000000000000))) (fp #b0 #b10000000 #b00000000000000000000000)) (fp #b0 #b01111111 #b11001100110011001100110)))

;; Goal def'vc
;; File "heron.ads", line 11, characters 0-0
(assert
  (not
  (=>
    (real_square_root__function_guard
      (real_square_root (fp.to_real x))
      (fp.to_real x))
    (=>
      (real_square_root__function_guard
        (real_square_root (fp.to_real x))
        (fp.to_real x))
      (=>
        (real_square_root__function_guard
          (real_square_root (fp.to_real x))
          (fp.to_real x))
        (=>
          (real_square_root__function_guard
            (real_square_root (fp.to_real x))
            (fp.to_real x))
          (= (bool_le
               (ite (or
                      (< 0.0 (+ (real_square_root (fp.to_real x)) (- (fp.to_real (fp.div RNE (fp.add RNE (fp #b0 #b01111111 #b00000000000000000000000) (fp.div RNE 
                      x (fp #b0 #b01111111 #b00000000000000000000000))) (fp #b0 #b10000000 #b00000000000000000000000))))))
                      (= 0.0 (+ (real_square_root (fp.to_real x)) (- (fp.to_real (fp.div RNE (fp.add RNE (fp #b0 #b01111111 #b00000000000000000000000) (fp.div RNE 
                      x (fp #b0 #b01111111 #b00000000000000000000000))) (fp #b0 #b10000000 #b00000000000000000000000)))))))
                 (+ (real_square_root (fp.to_real x)) (- (fp.to_real (fp.div RNE (fp.add RNE (fp #b0 #b01111111 #b00000000000000000000000) (fp.div RNE 
                 x (fp #b0 #b01111111 #b00000000000000000000000))) (fp #b0 #b10000000 #b00000000000000000000000)))))
                 (- (+ (real_square_root (fp.to_real x)) (- (fp.to_real (fp.div RNE (fp.add RNE (fp #b0 #b01111111 #b00000000000000000000000) (fp.div RNE 
                 x (fp #b0 #b01111111 #b00000000000000000000000))) (fp #b0 #b10000000 #b00000000000000000000000)))))))
               (+ (* (to_real1 1) (/ 1.0 (to_real1 (power 2 (power 2 1))))) (* 
               (to_real1
                 (* 3 1)) (* (to_real1 1) (/ 1.0 (to_real1 8388608)))))) true)))))))

(check-sat)
